9
8
10
3
1
7
2
12
15
8
3
1
14
8
9
12
14
5
3
1
6
11
13
1
9
7
14
9
15
1
12
2
9
10
7
2
5
12
14
1
9
8
15
4
2
12
14
2
9
6
12
5
15
11
2
11
1
11
2
15
11
7
9
10
11
5
13
13
15
6
7
6
15
4
12
12
9
8
5
12
9
13
4
7
12
5
5
9
3
8
6
12
9
4
5
2
15
9
13
4
